WARNING: for repeatability, setting FPU to use double precision
============================[ Problem Statistics ]=============================
|                                                                             |
|  Number of symmetries:          23                                          |
|  Number of invertingSyms:        0                                          |
|  Number of variables:           156                                         |
|  Number of clauses:             949                                         |
|  Parse time:                   0.00 s                                       |
|                                                                             |
============================[ Search Statistics ]==============================
| Conflicts |          ORIGINAL         |          LEARNT          | Progress |
|           |    Vars  Clauses Literals |    Limit  Clauses Lit/Cl |          |
===============================================================================
|       100 |     156      949     2028 |      347      101     67 |  0.004 % |
|       250 |     156      949     2028 |      382      317     50 |  0.004 % |
|       475 |     156      949     2028 |      421      415     43 |  0.004 % |
|       812 |     156      949     2028 |      463      372     42 |  0.004 % |
|      1318 |     156      949     2028 |      509      406     45 |  0.004 % |
|      2077 |     156      949     2028 |      560      463     51 |  0.004 % |
|      3216 |     156      949     2028 |      616      561     49 |  0.004 % |
|      4924 |     156      949     2028 |      678      338     53 |  0.004 % |
|      7486 |     156      949     2028 |      745      728     51 |  0.004 % |
|     11330 |     156      949     2028 |      820      499     53 |  0.004 % |
|     17096 |     156      949     2028 |      902      738     48 |  0.004 % |
|     25745 |     156      949     2028 |      992      941     51 |  0.004 % |
|     38719 |     156      949     2028 |     1092      873     48 |  0.004 % |
===============================================================================
restarts              : 158
conflicts             : 52238          (91646 /sec)
symconflicts          : 5576           (9782 /sec)
decisions             : 84518          (0.00 % random) (148277 /sec)
propagations          : 960955         (1685886 /sec)
sympropagations       : 20968          (36786 /sec)
conflict literals     : 2726712        (5.71 % deleted)
Memory used           : 6.00 MB
CPU time              : 0.57 s

UNSATISFIABLE
